AMPL code/stage2.dat
param dab:= 7;
param dae:= 8;
param daf:= 12;
param dbc:= 4;
param dce:= 8;
param dcf:= 5;
param dch:= 12;
param ddb:= 5;
param dde:= 10;
param ddh:= 8;
param deg:= 7;
param dfd:= 3;
param dgb:= 10;
param dgf:= 8;
param dgh:= 15;
param dci:= 10;
param ddi:= 12;
param dgi:= 3;
param dij:= 5;
param djb:= 5;
param djf:= 10;
param djh:= 15;
param djk:= 9;
param dck:= 8;
param ddk:= 4;
param dkl:= 5;
param dlb:= 12;
param dlf:= 8;
param dlh:= 3;

